33D32945 STP File, STP Format Version 1.0

SECTION Comments
Name "cube_n10_d2_s15"
Problem "Euclidean Steiner Tree Problem"
Remark "Generated with STPGenerator. 2 dimensions."
END

SECTION Graph
Nodes 10
END

SECTION Coordinates
DD 0 0.3549731771 0.6731490375
DD 1 0.5153574038 0.2768868838
DD 2 0.9831143995 0.7832298362
DD 3 0.3857721921 0.3929051535
DD 4 0.0476035024 0.2348172144
DD 5 0.1034733854 0.3869860398
DD 6 0.9775588964 0.7308916956
DD 7 0.3246047955 0.3443029827
DD 8 0.6699542467 0.4050064401
DD 9 0.8388915681 0.8634974965
END
